
%FILE DATA:	Soccer Computational Problem for MiniZinc Models	%
%AUTHOR:	Jack Wall	%
%CONTACT:  	116397063@umail.ucc.ie			%
%LAST UPDATE:	03/03/2020, 16:02:56						%
%DESCRIPTION: 	48 games played with 8 games left				%


n=8; %number of teams

%Games to play
games=[|2,8|6,4|8,5|6,7|8,2|1,6|5,2|7,6|];

%Initial points
iPoints=[10,24,12,23,14,14,19,12];

%POSITION CONSTRAINTS
% [|teamID, operator, position|...]
% operators index:
%  1 for =  operator
%  2 for >  operator
%  3 for >= operator
%  4 for <  operator
%  5 for <= operator
positionConstraints=[|2,5,1|4,4,3|7,5,3|];